Route #1: 0 28 26 80 29 79 78 34 35 65 71 9 51 81 33 3 76 50 1 30 20 66 32 63 10 31 88 52 0
Route #2: 0 27 18 48 47 46 17 84 61 16 44 91 100 37 98 85 93 92 87 95 94 6 96 99 5 60 89 0
Route #3: 0 53 58 13 59 97 42 43 15 57 2 40 21 73 72 22 41 75 23 56 4 25 55 24 54 12 68 77 69 0
Route #4: 0 39 67 74 14 38 86 45 83 8 82 7 62 19 36 49 64 11 90 70 0
Cost 891:
